c Problem Statistics
c Number of variables: 1065
c Number of clauses: 1032
c Parse time (sec.) : 0.00
c
p cnf 1065 613
-225 0
17 0
-26 0
27 0
-28 0
-29 0
-44 0
-30 0
-45 0
60 0
-96 0
111 0
112 0
-99 0
-114 0
-129 0
130 0
145 0
101 0
116 0
117 0
131 0
-132 0
119 0
126 0
-127 0
155 0
-156 0
-218 0
-219 0
-220 0
2 0
16 0
3 0
31 0
18 0
4 0
46 0
32 0
5 0
47 0
61 0
6 0
62 0
7 0
8 0
10 0
11 0
25 0
12 0
13 0
15 0
22 0
23 0
36 0
37 0
53 0
41 0
42 0
43 0
58 0
49 0
51 0
55 0
71 0
74 0
75 0
78 0
80 0
95 0
81 0
97 0
85 0
100 0
115 0
88 0
113 0
118 0
133 0
134 0
120 0
135 0
121 0
136 0
151 0
166 0
167 0
181 0
182 0
125 0
157 0
144 0
147 0
759 0
160 0
175 0
165 0
171 0
185 0
193 0
180 0
188 0
195 0
211 0
198 0
214 0
215 0
203 0
207 0
209 0
94 0
194 0
216 0
184 0
174 0
83 0
191 0
123 0
24 0
21 0
50 0
57 0
73 0
77 0
98 0
110 0
153 0
158 0
172 0
202 0
213 0
222 0
224 0
223 0
208 0
163 0
-769 149 -103 -148 0
768 -149 -148 103 0
-768 149 103 -148 0
-662 -107 -106 122 0
-598 105 -90 -104 0
-814 -159 -146 161 0
814 -159 -146 -161 0
-815 -159 146 161 0
815 -159 146 -161 0
-600 105 -90 104 0
600 -105 104 -90 0
-601 105 90 104 0
601 -105 90 104 0
-604 -106 -92 107 0
604 -106 -92 -107 0
-605 107 92 -106 0
-176 -190 -192 -177 0
780 -152 -106 -137 0
-781 152 -106 137 0
781 -152 -106 137 0
-105 150 149 -774 0
773 105 -149 -150 0
-773 105 -149 150 0
772 -105 -149 -150 0
-772 -105 -149 150 0
-610 107 -93 108 0
609 -107 93 -108 0
771 -103 -149 148 0
-771 149 148 -103 0
770 -149 148 103 0
-770 149 148 103 0
769 -149 -148 -103 0
-731 124 139 138 0
730 138 -139 -124 0
-599 105 90 -104 0
598 -105 -90 -104 0
-465 70 69 -54 0
464 -70 69 54 0
-464 70 69 54 0
463 -69 -54 -70 0
-463 70 -54 -69 0
-730 -124 139 138 0
729 124 -139 -138 0
-729 124 139 -138 0
728 -124 -138 -139 0
-720 -122 106 137 0
720 106 -137 -122 0
-721 122 106 137 0
605 -107 92 -106 0
176 190 -177 -192 0
-35 64 65 -48 0
394 -52 48 -35 0
611 107 93 -108 0
-611 107 93 108 0
610 107 -93 -108 0
-606 106 -92 107 0
606 106 -92 -107 0
-607 107 106 92 0
607 -107 106 92 0
-608 -107 -93 108 0
608 -107 -93 -108 0
-609 -107 93 108 0
731 138 -139 124 0
687 -128 82 68 0
-124 122 -109 108 0
-984 205 -204 -190 0
984 -205 -204 -190 0
137 122 138 -108 0
69 82 -84 -68 0
-687 128 82 68 0
968 -201 -200 -186 0
-346 40 -39 9 0
346 -40 -39 9 0
-347 -9 40 -39 0
347 -9 -40 -39 0
-348 40 9 39 0
348 -40 9 39 0
-349 -9 40 39 0
349 -9 -40 39 0
-968 201 -200 -186 0
137 -122 138 108 0
108 -93 -109 79 0
-217 -201 199 187 0
-438 -48 -63 64 0
438 -48 -63 -64 0
-1060 221 178 -206 0
189 -159 173 187 0
173 -189 -187 -159 0
-169 183 -199 197 0
971 186 200 -201 0
-439 64 -63 48 0
439 -63 48 -64 0
-440 -48 63 64 0
-142 170 173 143 0
-971 186 200 201 0
38 9 20 39 0
969 -201 -200 186 0
-183 197 -199 169 0
599 -105 90 -104 0
392 -52 -48 -35 0
-392 52 -48 -35 0
-329 34 20 35 0
329 34 20 -35 0
-39 9 -38 20 0
-105 -150 149 774 0
-775 105 149 150 0
775 105 149 -150 0
-778 152 -137 106 0
778 -152 -137 106 0
-779 106 152 137 0
779 106 137 -152 0
-780 152 -106 -137 0
-969 201 -200 186 0
-205 176 190 -206 0
-176 -206 -190 -205 0
-154 -152 139 -138 0
93 108 -79 -109 0
-48 -35 -66 65 0
-183 -169 199 197 0
169 183 199 197 0
-1058 -221 178 -206 0
210 179 206 178 0
-122 108 -109 124 0
-169 183 199 -197 0
-394 52 48 -35 0
-183 -169 -199 -197 0
437 48 -1 -63 0
-437 48 -1 63 0
459 -68 -69 54 0
-460 68 -54 69 0
460 68 -54 -69 0
-461 69 54 68 0
529 72 -86 -87 0
-846 169 -154 168 0
846 -169 -154 168 0
-529 72 -86 87 0
169 -197 -199 183 0
169 -197 199 -183 0
528 -72 -86 -87 0
-528 -72 87 -86 0
816 -161 -146 159 0
-508 -67 82 66 0
-816 159 -146 161 0
-899 183 168 106 0
899 106 168 -183 0
-530 -72 86 87 0
441 63 48 -64 0
-441 63 48 64 0
440 -48 63 -64 0
-454 -67 -38 68 0
454 -67 -68 -38 0
-455 -67 68 38 0
455 -67 -68 38 0
-456 67 -38 68 0
970 200 -186 -201 0
-970 200 -186 201 0
1011 197 -196 -212 0
-1011 197 -196 212 0
-473 -40 72 56 0
-457 67 68 38 0
457 -68 38 67 0
-458 -68 -54 69 0
458 -68 -69 -54 0
-459 -68 54 69 0
-551 -63 -92 93 0
551 -63 -92 -93 0
-552 93 63 92 0
552 -93 92 63 0
-553 93 -63 92 0
553 -93 -63 92 0
-873 176 159 161 0
872 159 -161 -176 0
817 159 -161 146 0
-872 159 -161 176 0
-817 159 161 146 0
510 -67 -82 -66 0
-510 -67 82 -66 0
509 67 -82 66 0
-509 67 82 66 0
508 -67 -82 66 0
511 67 -82 -66 0
-511 67 82 -66 0
-537 -87 89 59 0
536 -87 -59 -89 0
876 -176 -162 -177 0
-536 -87 -59 89 0
-876 -176 -162 177 0
69 -82 -84 68 0
91 92 -1 -76 0
875 -176 -159 161 0
456 67 -68 -38 0
-745 128 -142 143 0
-884 179 -164 -178 0
744 -128 -142 -143 0
-744 -128 -142 143 0
473 -40 -72 56 0
472 40 -72 56 0
-472 40 72 56 0
465 -70 69 -54 0
452 -52 66 -67 0
-452 -52 66 67 0
451 -67 52 -66 0
-451 67 52 -66 0
450 -67 -52 -66 0
-450 67 -52 -66 0
531 72 86 -87 0
-885 179 164 -178 0
462 -70 -69 54 0
721 106 -137 122 0
722 -106 -137 -122 0
-723 122 -106 137 0
723 -106 -137 122 0
-728 -124 -138 139 0
-875 -159 161 176 0
-550 63 -92 93 0
874 -176 -161 -159 0
-874 176 -161 -159 0
873 -176 161 159 0
550 63 -92 -93 0
-663 107 -106 122 0
662 -107 -106 -122 0
746 -128 142 -143 0
-746 -128 142 143 0
745 128 -142 -143 0
879 176 162 -177 0
-879 176 162 177 0
878 176 -162 -177 0
-878 176 -162 177 0
877 -176 162 -177 0
-877 -176 177 162 0
453 -67 52 66 0
-453 67 52 66 0
539 87 59 -89 0
-539 87 89 59 0
538 87 -89 -59 0
-538 -59 89 87 0
537 -87 59 -89 0
-531 72 86 87 0
530 -72 86 -87 0
885 -179 164 -178 0
-722 137 -106 -122 0
461 68 -69 54 0
-462 70 -69 54 0
-886 179 -164 178 0
886 -179 178 -164 0
-887 179 164 178 0
887 -179 164 178 0
-149 -162 -148 -164 0
-177 -162 -148 -178 0
-747 128 142 143 0
747 128 142 -143 0
665 107 106 -122 0
-665 107 106 122 0
664 -107 106 -122 0
-664 -107 106 122 0
663 107 -106 -122 0
884 -179 -164 -178 0
217 -201 -199 0
124 122 109 0
-422 40 59 0
422 40 -59 0
-1046 221 -206 0
1046 -221 -206 0
-1047 221 206 0
1047 -221 206 0
-851 169 170 0
128 -686 -82 0
-124 -122 -108 0
-1059 210 206 0
-686 128 -68 0
-420 -40 59 0
420 -40 -59 0
-128 686 -68 0
851 169 -170 0
-849 -169 170 0
-1059 210 -178 0
-588 -87 102 0
589 -102 87 0
686 -128 -82 0
849 -169 -170 0
742 141 -142 0
-124 -122 109 0
-742 141 142 0
740 -141 -142 0
-740 -141 142 0
739 -141 140 0
-739 141 140 0
737 -141 -140 0
-737 141 -140 0
124 122 -108 0
-217 201 -199 0
39 -38 -20 0
251 -14 -9 0
143 142 -159 0
82 68 84 0
-544 -76 91 0
-210 -206 178 0
48 -33 -1 0
217 201 199 0
-176 206 190 0
-176 192 190 0
-103 -146 -148 0
148 -146 103 0
-103 148 146 0
487 -76 -1 0
602 -91 -106 0
-102 588 -87 0
-545 91 76 0
103 146 -148 0
93 109 79 0
106 168 152 0
-201 204 -187 0
-200 199 -170 0
106 138 168 0
-91 545 76 0
-602 106 -91 0
176 -190 206 0
-589 87 102 0
197 -196 -106 0
-196 951 -106 0
-951 196 -106 0
-487 -1 76 0
-152 -168 -138 0
950 106 -196 0
-950 106 196 0
-122 -108 -138 0
122 108 -138 0
38 -35 -20 0
-35 -38 20 0
38 35 20 0
35 -38 -20 0
187 159 -189 0
-9 -39 38 0
-179 -210 178 0
210 -179 -178 0
179 -210 -178 0
250 -14 9 0
-250 14 9 0
-251 14 -9 0
320 -33 -1 0
-68 -82 84 0
19 1 20 0
-327 35 -34 0
-911 186 -170 0
911 -170 -186 0
-912 186 170 0
912 170 -186 0
-9 39 -38 0
985 -205 190 0
-985 205 190 0
-91 544 -76 0
-319 33 1 0
319 -33 1 0
189 -173 -187 0
187 -173 -189 0
-190 -189 159 0
-103 -89 104 0
217 -201 -187 0
486 -76 1 0
63 -64 79 0
-328 35 -20 0
328 -35 -20 0
-264 19 -1 0
264 -19 -1 0
-1013 212 196 0
267 1 -19 0
327 -35 -34 0
1013 -212 196 0
38 -39 -20 0
102 87 103 0
241 -9 -1 0
186 187 170 0
-142 -170 -187 0
186 187 142 0
240 -9 1 0
-241 9 -1 0
-240 9 1 0
146 161 162 0
140 -139 65 0
1010 -212 -197 0
59 -90 -89 0
40 56 54 0
901 -183 -106 0
-901 183 -106 0
-1010 212 -197 0
-986 204 205 0
395 -52 35 0
-395 52 35 0
986 -205 204 0
-435 63 1 0
435 -63 1 0
-320 33 -1 0
-436 -48 63 0
436 -48 -63 0
603 -106 91 0
898 -183 -168 0
189 159 -187 0
189 -204 187 0
33 34 -19 0
54 39 38 0
-40 -56 54 0
-93 109 -79 0
-40 56 -54 0
-140 109 -65 0
-847 169 154 0
847 -169 154 0
40 -56 -54 0
-267 19 1 0
176 -190 192 0
844 -169 -168 0
-844 169 -168 0
-204 201 189 0
-603 106 91 0
-898 183 -168 0
-486 1 76 0
-84 -86 -56 0
471 -72 -56 0
-471 72 -56 0
-109 -139 140 0
-142 159 0
189 190 0
-170 -173 0
106 -197 0
149 164 0
-102 -103 0
-87 -103 0
-48 1 0
164 162 0
138 154 0
-104 89 0
196 -197 0
66 48 0
-65 48 0
200 170 0
204 -189 0
-143 159 0
33 -48 0
-143 -173 0
-199 200 0
-65 -64 0
-65 35 0
206 205 0
192 177 0
-139 154 0
152 154 0
86 84 0
-34 19 0
56 86 0
66 35 0
-140 139 0
-39 -54 0
-91 -92 0
-69 84 0
-108 109 0
159 -173 0
66 -65 0
177 178 0
190 -159 0
-106 -168 0
64 -79 0
-104 103 0
-38 -54 0
-63 -79 0
-59 90 0
89 90 0
-161 -162 0
-146 -162 0
-34 -33 0
1 -92 0
-186 -187 0
-20 -1 0
-19 -20 0
76 -92 0
-137 -138 0
164 148 0
148 178 0
162 178 0
c restarts              : 833
c conflicts             : 25             (208 /sec)
c decisions             : 692752         (0.00 % random) (5772933 /sec)
c propagations          : 934259         (7785492 /sec)
c conflict literals     : 69             (4.17 % deleted)
c CPU time (sec.): 0.12
